100 500 200 500 10 100
68 430
40 344
71 301
59 206
16 277
80 325
68 218
97 311
66 300
78 324
30 389
36 367
73 238
67 304
98 482
51 377
37 449
23 313
31 349
59 213
77 436
54 347
56 339
23 275
53 218
14 380
12 339
87 249
57 441
62 318
32 377
35 230
47 464
73 273
74 361
22 487
22 324
47 500
33 489
79 299
14 321
67 362
40 373
100 285
23 464
94 433
26 347
58 363
84 454
48 423
15 422
97 360
97 441
86 457
56 281
23 385
27 433
85 310
49 408
97 316
98 497
98 460
88 358
94 455
38 457
27 376
71 485
24 372
73 293
51 253
80 282
43 275
97 434
16 217
64 478
61 410
72 279
37 318
66 390
84 248
24 296
91 474
41 409
16 405
30 372
33 273
74 344
23 366
100 482
31 266
49 414
23 433
93 243
87 429
34 470
69 478
35 299
50 296
80 494
70 407
